42
1000
199	4
198	2
196	2
195	1
194	5
193	3
192	2
191	3
190	2
189	2
188	2
187	1
186	2
184	2
183	3
180	1
179	3
178	2
177	3
176	1
175	3
174	1
173	1
172	3
171	2
170	5
168	2
167	7
166	2
165	1
164	2
162	2
161	1
160	1
159	2
158	1
156	5
154	3
153	2
152	2
151	1
150	5
